language ESSENCE' 1.0

letting jobs = 102
letting horizon = 810
letting resourcesRenew = 2
letting resourcesNonrenew = 2
letting resourceLimits = [90, 88, 300, 264]
letting successors = [[2, 3, 4, 5, 6, 7, 8, 9, 10, 11, 12, 13, 14, 15, 17, 18, 19, 20, 21, 22, 23, 24, 25, 26, 27, 28, 30, 31, 34, 35, 36, 37], [101, 99, 76, 73, 71, 66, 64, 63, 60, 55, 51, 49, 44, 42, 39, 16], [101, 100, 99, 97, 96, 95, 93, 77, 74, 73, 66, 64, 63, 62, 46, 44, 41, 32], [99, 98, 88, 67, 64, 61, 59, 57, 56, 50, 49, 47, 42, 38], [97, 96, 95, 91, 77, 74, 71, 68, 67, 64, 60, 52, 50, 49, 44, 38], [101, 98, 94, 90, 76, 73, 64, 63, 62, 59, 57, 56, 48, 41, 40], [100, 99, 96, 94, 74, 73, 68, 51, 44, 41, 39, 29], [100, 99, 95, 93, 91, 86, 76, 75, 74, 71, 70, 65, 64, 63, 59, 58, 46, 44], [98, 94, 74, 73, 71, 70, 69, 60, 58, 42, 29], [101, 99, 97, 95, 90, 89, 84, 77, 76, 72, 67, 64, 60, 55, 53, 50, 41], [98, 97, 95, 91, 77, 76, 73, 71, 70, 66, 63, 49, 48, 33], [100, 97, 95, 94, 92, 91, 83, 77, 74, 63, 58, 55, 45, 44], [100, 99, 98, 97, 96, 94, 93, 89, 87, 82, 58, 54, 43, 41], [98, 96, 95, 94, 93, 92, 91, 88, 86, 75, 74, 73, 72, 70, 68, 66, 60, 59, 58, 48], [100, 99, 98, 97, 95, 90, 89, 86, 85, 76, 75, 71, 70, 65, 64, 58, 51, 48], [100, 96, 95, 94, 93, 91, 90, 88, 77, 75, 74, 72, 67, 61, 58, 53, 48], [96, 94, 92, 91, 89, 83, 69, 65, 59, 57, 55, 44], [100, 95, 91, 89, 84, 83, 75, 73, 72, 71, 65, 64, 59, 58, 56, 55], [99, 96, 95, 93, 92, 91, 73, 71, 70, 69, 66, 62, 61, 48, 46], [100, 99, 98, 97, 95, 94, 89, 88, 84, 77, 72, 64, 60, 42], [96, 94, 93, 91, 89, 85, 74, 73, 71, 66, 64, 50, 44], [100, 99, 95, 91, 90, 88, 86, 74, 72, 70, 65, 64, 61, 56, 48], [99, 94, 93, 92, 88, 76, 73, 72, 70, 51, 48, 42], [97, 95, 92, 86, 74, 72, 70, 56, 33], [99, 96, 94, 92, 87, 84, 82, 66, 65, 61, 41], [99, 97, 95, 94, 93, 92, 91, 90, 84, 81, 79, 73, 71, 67, 65, 61], [97, 93, 91, 90, 89, 88, 86, 85, 84, 83, 82, 73, 65, 64, 63, 58], [98, 95, 93, 89, 88, 86, 70, 66, 64, 63, 58, 48], [95, 93, 91, 90, 88, 87, 86, 84, 83, 81, 79, 64, 61, 59], [96, 94, 91, 90, 89, 76, 73, 69, 50, 48], [100, 96, 91, 90, 85, 84, 81, 74, 71, 70, 69, 67], [92, 91, 90, 89, 88, 87, 84, 70, 69, 60, 58], [101, 99, 96, 94, 89, 88, 87, 85, 84, 83, 58], [98, 97, 92, 85, 84, 83, 82, 81, 80, 71, 63], [100, 94, 93, 88, 84, 81, 79, 73, 70, 69, 64], [93, 89, 88, 86, 83, 82, 74, 69, 64, 58], [99, 98, 89, 86, 85, 82, 81, 80, 71, 70, 69], [92, 89, 85, 84, 82, 73, 69, 58], [90, 89, 86, 85, 69, 48], [96, 95, 91, 89, 84, 83, 80, 77, 72, 69], [91, 86, 85, 81, 75, 71, 70, 69], [96, 91, 90, 87, 86, 85, 83, 75, 65], [92, 90, 88, 86, 85, 83, 81, 63], [98, 90, 72, 48], [96, 84, 79, 69, 61], [94, 89, 85, 83, 81, 80, 79, 78], [94, 81, 80, 70, 66], [87, 84, 82, 81, 80, 79, 78], [93, 90, 89, 86, 85, 82, 78], [87, 86, 82, 79, 78, 70], [91, 87, 84, 81, 79, 69], [94, 93, 84, 79, 78, 76], [81, 80, 79, 70, 69], [91, 86, 85, 84, 65], [93, 88, 86, 82, 80, 79], [93, 82, 81, 69], [95, 81, 78, 74], [81, 80, 79, 78], [97, 85, 82, 78], [82, 81, 79, 78], [89, 85, 80], [86, 85, 79], [79, 69], [92, 78], [80, 78], [90, 79], [86, 82], [80, 79], [78], [83], [88], [82], [87], [79], [80], [80], [82], [102], [102], [102], [102], [102], [102], [102], [102], [102], [102], [102], [102], [102], [102], [102], [102], [102], [102], [102], [102], [102], [102], [102], [102], []]
letting durations = [[0], [4, 7, 10], [3, 4, 7], [4, 7, 10], [4, 5, 6], [2, 3, 4], [6, 6, 7], [3, 6, 7], [1, 4, 7], [3, 4, 9], [1, 6, 10], [1, 2, 2], [4, 4, 10], [1, 6, 7], [1, 2, 5], [1, 2, 10], [6, 9, 9], [6, 9, 10], [3, 8, 9], [5, 9, 9], [4, 5, 6], [2, 3, 3], [5, 9, 9], [1, 7, 10], [2, 2, 5], [4, 6, 6], [6, 8, 8], [2, 4, 5], [1, 2, 8], [7, 10, 10], [3, 5, 10], [6, 9, 9], [6, 8, 9], [5, 6, 10], [4, 5, 8], [1, 2, 4], [6, 8, 8], [5, 8, 9], [4, 6, 9], [2, 7, 7], [7, 10, 10], [1, 6, 10], [4, 6, 7], [1, 1, 7], [2, 6, 8], [2, 6, 8], [2, 3, 9], [4, 7, 10], [2, 3, 5], [2, 8, 9], [2, 7, 10], [1, 5, 6], [2, 8, 9], [1, 3, 8], [4, 6, 6], [7, 7, 10], [3, 5, 7], [4, 6, 7], [1, 7, 7], [1, 5, 10], [5, 8, 10], [7, 9, 10], [3, 7, 9], [1, 3, 8], [1, 3, 6], [8, 9, 10], [1, 6, 10], [1, 7, 10], [5, 6, 8], [1, 3, 6], [2, 7, 10], [4, 5, 10], [1, 8, 9], [2, 6, 7], [2, 8, 9], [4, 5, 10], [4, 5, 8], [6, 8, 10], [4, 5, 7], [7, 9, 10], [4, 6, 7], [5, 9, 10], [1, 8, 8], [3, 6, 8], [1, 2, 8], [2, 3, 5], [1, 1, 9], [4, 5, 10], [1, 1, 5], [5, 9, 10], [4, 5, 8], [1, 9, 9], [2, 2, 8], [2, 4, 8], [2, 3, 5], [3, 4, 9], [4, 6, 7], [2, 3, 6], [2, 9, 10], [4, 6, 9], [1, 4, 10], [0]]
letting resourceUsage = [[[0, 0, 0, 0]], [[7, 0, 0, 6], [6, 0, 7, 0], [0, 7, 7, 0]], [[0, 5, 6, 0], [8, 0, 4, 0], [8, 0, 0, 1]], [[0, 9, 7, 0], [0, 4, 0, 9], [0, 4, 5, 0]], [[8, 0, 0, 2], [5, 0, 0, 2], [5, 0, 6, 0]], [[8, 0, 9, 0], [7, 0, 0, 5], [0, 4, 0, 4]], [[0, 10, 0, 10], [6, 0, 0, 9], [5, 0, 1, 0]], [[0, 7, 0, 4], [9, 0, 0, 4], [0, 6, 0, 2]], [[0, 4, 8, 0], [7, 0, 0, 2], [7, 0, 0, 1]], [[7, 0, 9, 0], [0, 4, 8, 0], [7, 0, 0, 4]], [[0, 10, 5, 0], [8, 0, 0, 8], [0, 8, 2, 0]], [[4, 0, 0, 3], [0, 2, 0, 1], [0, 2, 3, 0]], [[5, 0, 9, 0], [0, 3, 0, 4], [2, 0, 0, 4]], [[0, 3, 0, 7], [0, 3, 0, 6], [0, 1, 2, 0]], [[5, 0, 4, 0], [3, 0, 3, 0], [2, 0, 2, 0]], [[0, 6, 6, 0], [7, 0, 6, 0], [6, 0, 0, 1]], [[0, 7, 6, 0], [0, 6, 0, 7], [0, 3, 6, 0]], [[6, 0, 7, 0], [0, 5, 6, 0], [0, 4, 5, 0]], [[9, 0, 10, 0], [0, 8, 0, 6], [4, 0, 3, 0]], [[5, 0, 4, 0], [5, 0, 3, 0], [5, 0, 0, 3]], [[9, 0, 3, 0], [6, 0, 3, 0], [6, 0, 0, 9]], [[0, 8, 0, 6], [1, 0, 6, 0], [0, 7, 0, 4]], [[0, 3, 5, 0], [5, 0, 0, 3], [0, 2, 4, 0]], [[0, 4, 7, 0], [4, 0, 7, 0], [3, 0, 0, 3]], [[4, 0, 7, 0], [4, 0, 0, 4], [0, 3, 4, 0]], [[0, 5, 7, 0], [0, 3, 0, 4], [0, 3, 2, 0]], [[0, 7, 7, 0], [5, 0, 0, 2], [0, 7, 0, 2]], [[9, 0, 0, 6], [4, 0, 9, 0], [0, 3, 8, 0]], [[0, 6, 7, 0], [0, 5, 0, 5], [1, 0, 0, 2]], [[0, 9, 9, 0], [8, 0, 8, 0], [0, 2, 8, 0]], [[0, 9, 0, 4], [8, 0, 2, 0], [0, 8, 0, 3]], [[0, 8, 7, 0], [0, 8, 5, 0], [3, 0, 0, 3]], [[0, 4, 3, 0], [0, 3, 1, 0], [3, 0, 0, 5]], [[0, 5, 0, 9], [5, 0, 0, 5], [5, 0, 0, 2]], [[0, 10, 0, 10], [0, 7, 0, 4], [7, 0, 0, 3]], [[0, 10, 7, 0], [0, 6, 5, 0], [0, 3, 0, 5]], [[0, 2, 0, 5], [0, 2, 0, 4], [2, 0, 2, 0]], [[10, 0, 9, 0], [8, 0, 8, 0], [6, 0, 0, 6]], [[8, 0, 0, 8], [5, 0, 0, 8], [3, 0, 0, 7]], [[0, 10, 7, 0], [0, 9, 3, 0], [3, 0, 1, 0]], [[4, 0, 0, 7], [3, 0, 0, 7], [0, 10, 2, 0]], [[4, 0, 8, 0], [0, 2, 0, 5], [0, 2, 4, 0]], [[0, 4, 0, 1], [6, 0, 0, 1], [0, 4, 6, 0]], [[4, 0, 10, 0], [0, 5, 0, 8], [0, 3, 0, 5]], [[5, 0, 8, 0], [0, 9, 5, 0], [0, 9, 4, 0]], [[0, 7, 5, 0], [0, 5, 0, 7], [3, 0, 0, 7]], [[3, 0, 7, 0], [3, 0, 0, 4], [0, 1, 2, 0]], [[9, 0, 7, 0], [0, 8, 4, 0], [0, 8, 3, 0]], [[0, 3, 0, 3], [0, 3, 0, 2], [5, 0, 9, 0]], [[0, 7, 9, 0], [4, 0, 3, 0], [0, 7, 0, 8]], [[10, 0, 0, 9], [0, 6, 4, 0], [0, 4, 0, 6]], [[0, 5, 0, 5], [7, 0, 7, 0], [5, 0, 6, 0]], [[0, 2, 6, 0], [2, 0, 6, 0], [2, 0, 5, 0]], [[0, 4, 9, 0], [0, 3, 0, 6], [0, 2, 0, 5]], [[0, 9, 8, 0], [0, 5, 0, 4], [5, 0, 5, 0]], [[5, 0, 3, 0], [4, 0, 0, 5], [0, 4, 1, 0]], [[6, 0, 0, 4], [0, 7, 5, 0], [2, 0, 2, 0]], [[0, 2, 0, 5], [0, 2, 0, 4], [5, 0, 7, 0]], [[10, 0, 10, 0], [10, 0, 5, 0], [10, 0, 0, 8]], [[0, 10, 9, 0], [4, 0, 0, 3], [0, 8, 0, 1]], [[7, 0, 6, 0], [6, 0, 0, 3], [0, 1, 4, 0]], [[6, 0, 0, 9], [3, 0, 3, 0], [1, 0, 3, 0]], [[5, 0, 0, 9], [4, 0, 3, 0], [4, 0, 0, 7]], [[0, 7, 1, 0], [6, 0, 1, 0], [3, 0, 0, 6]], [[4, 0, 7, 0], [4, 0, 0, 2], [4, 0, 2, 0]], [[10, 0, 0, 5], [9, 0, 7, 0], [0, 2, 0, 1]], [[8, 0, 7, 0], [4, 0, 0, 2], [3, 0, 5, 0]], [[8, 0, 3, 0], [0, 7, 3, 0], [0, 6, 0, 2]], [[7, 0, 0, 4], [0, 1, 0, 4], [0, 1, 0, 3]], [[0, 10, 0, 8], [4, 0, 7, 0], [4, 0, 6, 0]], [[3, 0, 9, 0], [0, 7, 0, 7], [0, 7, 0, 5]], [[0, 8, 7, 0], [4, 0, 0, 3], [4, 0, 0, 1]], [[8, 0, 5, 0], [8, 0, 0, 8], [0, 1, 0, 7]], [[4, 0, 0, 6], [0, 5, 5, 0], [0, 4, 0, 6]], [[0, 7, 0, 9], [3, 0, 3, 0], [0, 7, 2, 0]], [[0, 7, 0, 9], [0, 5, 0, 8], [5, 0, 2, 0]], [[0, 3, 0, 7], [0, 3, 0, 4], [0, 1, 0, 3]], [[0, 3, 4, 0], [4, 0, 0, 2], [3, 0, 0, 2]], [[0, 5, 9, 0], [3, 0, 7, 0], [0, 4, 0, 3]], [[0, 8, 0, 7], [4, 0, 0, 6], [0, 2, 5, 0]], [[0, 3, 0, 4], [5, 0, 0, 4], [3, 0, 0, 2]], [[0, 2, 0, 5], [0, 1, 6, 0], [4, 0, 4, 0]], [[9, 0, 9, 0], [9, 0, 7, 0], [0, 2, 3, 0]], [[0, 9, 0, 8], [0, 5, 9, 0], [2, 0, 0, 4]], [[7, 0, 0, 3], [4, 0, 0, 1], [0, 5, 4, 0]], [[0, 6, 8, 0], [0, 4, 8, 0], [0, 3, 8, 0]], [[10, 0, 0, 10], [0, 5, 0, 6], [0, 3, 7, 0]], [[4, 0, 0, 6], [0, 6, 5, 0], [4, 0, 4, 0]], [[0, 8, 0, 10], [0, 6, 7, 0], [0, 2, 7, 0]], [[0, 9, 0, 4], [0, 9, 2, 0], [0, 7, 1, 0]], [[0, 9, 0, 7], [0, 8, 0, 4], [8, 0, 3, 0]], [[0, 9, 0, 6], [3, 0, 6, 0], [3, 0, 0, 6]], [[8, 0, 3, 0], [0, 3, 3, 0], [4, 0, 0, 4]], [[9, 0, 0, 5], [6, 0, 0, 3], [0, 1, 0, 3]], [[0, 3, 7, 0], [0, 2, 0, 7], [5, 0, 4, 0]], [[9, 0, 9, 0], [0, 6, 6, 0], [0, 2, 0, 8]], [[0, 5, 0, 5], [9, 0, 7, 0], [0, 5, 7, 0]], [[8, 0, 0, 7], [8, 0, 5, 0], [8, 0, 0, 6]], [[3, 0, 0, 8], [0, 5, 5, 0], [3, 0, 0, 7]], [[0, 2, 0, 6], [0, 2, 8, 0], [0, 2, 7, 0]], [[0, 4, 0, 7], [9, 0, 3, 0], [9, 0, 1, 0]], [[0, 0, 0, 0]]]
